NAME: random-87-28941
TYPE: TSP
COMMENT: size=87 seed=28941
DIMENSION: 176
EDGE_WEIGHT_TYPE: EUC_2D
NODE_COORD_SECTION
+0 387 827
-0 387 827
+1 684 560
-1 337 589
+2 170 819
-2 634 561
+3 916 522
-3 858 813
+4 26 355
-4 328 594
+5 69 904
-5 54 968
+6 224 850
-6 492 123
+7 623 664
-7 62 740
+8 827 916
-8 816 800
+9 316 732
-9 232 830
+10 544 907
-10 455 282
+11 200 404
-11 388 843
+12 430 327
-12 540 551
+13 221 772
-13 729 844
+14 924 23
-14 219 179
+15 295 859
-15 135 833
+16 303 161
-16 163 553
+17 985 255
-17 388 422
+18 242 671
-18 808 647
+19 179 873
-19 339 899
+20 36 138
-20 916 613
+21 328 802
-21 176 46
+22 916 166
-22 952 88
+23 979 424
-23 403 105
+24 634 79
-24 440 917
+25 591 50
-25 747 628
+26 61 910
-26 923 45
+27 505 42
-27 166 939
+28 695 309
-28 834 675
+29 541 880
-29 340 914
+30 109 75
-30 312 998
+31 976 214
-31 812 609
+32 601 959
-32 932 928
+33 712 186
-33 992 574
+34 434 949
-34 940 104
+35 724 421
-35 993 948
+36 977 380
-36 952 783
+37 723 360
-37 89 913
+38 786 872
-38 581 326
+39 400 151
-39 75 639
+40 459 310
-40 284 916
+41 771 989
-41 99 34
+42 19 16
-42 654 497
+43 34 440
-43 972 459
+44 569 849
-44 988 608
+45 880 967
-45 35 138
+46 654 122
-46 540 450
+47 257 862
-47 718 514
+48 10 348
-48 647 575
+49 671 487
-49 981 83
+50 71 261
-50 242 849
+51 680 584
-51 740 517
+52 58 223
-52 943 631
+53 780 617
-53 363 534
+54 397 548
-54 246 981
+55 861 917
-55 672 974
+56 138 49
-56 453 338
+57 771 625
-57 379 534
+58 380 828
-58 104 898
+59 648 639
-59 974 211
+60 263 433
-60 645 931
+61 687 95
-61 111 713
+62 147 932
-62 205 183
+63 821 474
-63 252 326
+64 479 559
-64 491 892
+65 427 274
-65 277 225
+66 372 503
-66 531 200
+67 302 801
-67 565 991
+68 746 119
-68 20 437
+69 267 269
-69 328 395
+70 805 123
-70 817 592
+71 503 740
-71 865 431
+72 427 766
-72 138 481
+73 996 529
-73 907 360
+74 590 259
-74 484 969
+75 470 654
-75 558 602
+76 849 940
-76 27 610
+77 365 512
-77 212 931
+78 727 664
-78 118 91
+79 4 738
-79 83 709
+80 887 112
-80 764 316
+81 868 530
-81 182 437
+82 700 865
-82 572 535
+83 279 60
-83 394 272
+84 313 905
-84 115 971
+85 706 140
-85 824 144
+86 914 684
-86 549 143
+87 953 162
-87 331 694
PRECEDENCE_SECTION
+0 -0
+1 -1
+2 -2
+3 -3
+4 -4
+5 -5
+6 -6
+7 -7
+8 -8
+9 -9
+10 -10
+11 -11
+12 -12
+13 -13
+14 -14
+15 -15
+16 -16
+17 -17
+18 -18
+19 -19
+20 -20
+21 -21
+22 -22
+23 -23
+24 -24
+25 -25
+26 -26
+27 -27
+28 -28
+29 -29
+30 -30
+31 -31
+32 -32
+33 -33
+34 -34
+35 -35
+36 -36
+37 -37
+38 -38
+39 -39
+40 -40
+41 -41
+42 -42
+43 -43
+44 -44
+45 -45
+46 -46
+47 -47
+48 -48
+49 -49
+50 -50
+51 -51
+52 -52
+53 -53
+54 -54
+55 -55
+56 -56
+57 -57
+58 -58
+59 -59
+60 -60
+61 -61
+62 -62
+63 -63
+64 -64
+65 -65
+66 -66
+67 -67
+68 -68
+69 -69
+70 -70
+71 -71
+72 -72
+73 -73
+74 -74
+75 -75
+76 -76
+77 -77
+78 -78
+79 -79
+80 -80
+81 -81
+82 -82
+83 -83
+84 -84
+85 -85
+86 -86
+87 -87
EOF
